c Lingeling SAT Solver
c 
c Version azf 92032848c138b2f33629ad24394d60a3787a1046
c 
c Copyright (C) 2010-2014 Armin Biere JKU Linz Austria.
c All rights reserved.
c 
c released Don Mai 22 22:08:00 CEST 2014
c compiled Mon Oct  6 05:55:43 PDT 2014
c 
c gcc (Ubuntu 4.8.2-19ubuntu1) 4.8.2
c -Wall -O3 -DNDBLSCR -DNLGLOG -DNDEBUG -DNCHKSOL -DNLGLPICOSAT -DNLGLDRUPLIG
c -DNLGLYALSAT
c Linux ubuntu 3.13.0-32-generic x86_64
c 
c reading input file benchmark-sat/translations/gc-le450_15d-18.cnf
c no embedded options
c found 'p cnf 8100 370800' header
c read 8100 variables, 370800 clauses, 748800 literals in 0.00 seconds
c 
c  seconds         irredundant          redundant clauses agility   height
c          variables clauses conflicts large ternary binary    glue         MB
c 
c S    0.0    8100   370800         0       0      0     0   0  0.0   0.0    9
c S    1.0    7805   365490      1709    1671      0     0   2 61.8 278.1   13
c P    2.0    7805   332210      4001    3903      0 33280   2 62.9 279.2   15
c P    5.0    7805   301655      4001    3903      0 63835   2 62.9 279.2   18
c P   10.0    7805   301655      4001    3903      0 63835   2 62.9 279.2   18
c S   20.0    7650   301500     24070    7214      0 61200   4 103.8 233.1   19
c S   30.0    7650   301500     56670    9914      0 61200   4 117.4 224.1   23
c S   40.0    7650   301500     84936   13817      0 61200   3 118.2 220.1   25
c S   50.0    7650   301500    125516   13256      0 61200   4 124.6 220.6   23
c S   60.0    7650   301500    155827   19805      0 61200   2 122.8 218.0   29
c S  120.1    7650   301500    358059   28965      0 61200   4 155.6 227.3   47
c S  180.0    7650   301500    581094   37064      0 61200   4 174.4 241.6   67
c S  240.0    7650   301500    787413   41566      0 61200   5 183.3 251.7   63
c S  300.0    7650   301500   1009024   40664      0 61200   5 185.2 254.7   67
c S  600.0    7650   301500   1966261   49491      0 61200   4 186.7 257.6   70
c S  900.0    7650   301500   2938278   59562      0 61200   4 183.0 253.3   74
